(set-logic QF_FP)
(set-info :source |Random FP created by PyMPF|)
(set-info :category random)
(set-info :status unsat)
(declare-const x Float32)
(assert (= x (fp #b1 #b11111110 #b11111111111111111111111)))
(declare-const y Float32)
(assert (= y (_ +oo 8 24)))
(declare-const z Float32)
(assert (= z (fp #b1 #b10010101 #b11101101001000001000001)))
(declare-const result Float32)
(assert (= result (fp.fma RTZ x y z)))
(assert (not (= result ((_ to_fp 8 24) #xFF800000))))
(check-sat)
(exit)
